============================[ Problem Statistics ]=============================
|                                                                             |
|  Number of variables:         14400                                         |
|  Number of clauses:           63874                                         |
|  Parse time:                   0.12 s                                       |
|                                                                             |
============================[ Search Statistics ]==============================
| Conflicts |          ORIGINAL         |          LEARNT          | Progress |
|           |    Vars  Clauses Literals |    Limit  Clauses Lit/Cl |          |
===============================================================================
|       100 |   13942    63494   157408 |    23281      100     13 |  3.181 % |
|       250 |   13942    63494   157408 |    25609      250     20 |  3.181 % |
|       475 |   13942    63494   157408 |    28170      475     23 |  3.181 % |
|       812 |   13942    63494   157408 |    30987      812     23 |  3.181 % |
|      1318 |   13942    63494   157408 |    34085     1318     23 |  3.181 % |
|      2077 |   13942    63494   157408 |    37494     2077     22 |  3.181 % |
|      3216 |   13942    63494   157408 |    41243     3216     21 |  3.181 % |
|      4924 |   13942    63494   157408 |    45368     4924     21 |  3.181 % |
|      7486 |   13942    63494   157408 |    49905     7486     22 |  3.181 % |
|     11330 |   13942    63494   157408 |    54895    11330     22 |  3.181 % |
|     17096 |   13942    63494   157408 |    60385    17096     23 |  3.181 % |
Finished MiniSat on FULL_RUN_MINISAT\07e6413459f92b613498a719125b6239-j3037_10_mdd_bm1.cnf 
Running MiniSat on FULL_RUN_MINISAT\09d7add3bf3b75c5d1023a92e752989a-Break_unsat_04_03.xml.cnf...